* #variable= 647 #constraint= 333 
+1 x623 = 0 ;
+1 x68 -1 x189 = 0 ;
+1 x189 -1 x277 = 0 ;
+1 x277 -1 x343 = 0 ;
+1 x343 -1 x396 = 0 ;
+1 x396 -1 x440 = 0 ;
+1 x480 +2 x491 +4 x502 +8 x513 +16 x524 +32 x535 +64 x546 +128 x557 +256 x568 +512 x579 +1024 x590 +2 x481 +4 x492 +8 x503 +16 x514 +32 x525 +64 x536 +128 x547 +256 x558 +512 x569 +1024 x580 +2048 x591 +4 x482 +8 x493 +16 x504 +32 x515 +64 x526 +128 x537 +256 x548 +512 x559 +1024 x570 +2048 x581 +4096 x592 +8 x483 +16 x494 +32 x505 +64 x516 +128 x527 +256 x538 +512 x549 +1024 x560 +2048 x571 +4096 x582 +8192 x593 +16 x484 +32 x495 +64 x506 +128 x517 +256 x528 +512 x539 +1024 x550 +2048 x561 +4096 x572 +8192 x583 +16384 x594 +32 x485 +64 x496 +128 x507 +256 x518 +512 x529 +1024 x540 +2048 x551 +4096 x562 +8192 x573 +16384 x584 +32768 x595 +64 x486 +128 x497 +256 x508 +512 x519 +1024 x530 +2048 x541 +4096 x552 +8192 x563 +16384 x574 +32768 x585 +65536 x596 +128 x487 +256 x498 +512 x509 +1024 x520 +2048 x531 +4096 x542 +8192 x553 +16384 x564 +32768 x575 +65536 x586 +131072 x597 +256 x488 +512 x499 +1024 x510 +2048 x521 +4096 x532 +8192 x543 +16384 x554 +32768 x565 +65536 x576 +131072 x587 +262144 x598 +512 x489 +1024 x500 +2048 x511 +4096 x522 +8192 x533 +16384 x544 +32768 x555 +65536 x566 +131072 x577 +262144 x588 +524288 x599 +1024 x490 +2048 x501 +4096 x512 +8192 x523 +16384 x534 +32768 x545 +65536 x556 +131072 x567 +262144 x578 +524288 x589 +1048576 x600 -1 x24 -2 x25 -4 x26 -8 x27 -16 x28 -32 x29 -64 x30 -128 x31 -256 x32 -512 x33 -1024 x34 -2048 x35 -4096 x36 -8192 x37 -16384 x38 -32768 x39 -65536 x40 -131072 x41 -262144 x42 -524288 x43 -1048576 x44 -2097152 x45 = 0; 
+1 x24 -1 x1 +2 x25 -2 x2 +4 x26 -4 x3 +8 x27 -8 x4 +16 x28 -16 x5 +32 x29 -32 x6 +64 x30 -64 x7 +128 x31 -128 x8 +256 x32 -256 x9 +512 x33 -512 x10 +1024 x34 -1024 x11 +2048 x35 -2048 x12 +4096 x36 -4096 x13 +8192 x37 -8192 x14 +16384 x38 -16384 x15 +32768 x39 -32768 x16 +65536 x40 -65536 x17 +131072 x41 -131072 x18 +262144 x42 -262144 x19 +524288 x43 -524288 x20 +1048576 x44 -1048576 x21 +2097152 x45 -2097152 x22 >= 1 ;
+1 x624 = 0 ;
+2 x190 +1 x191 -1 x70 -1 x69 = 0 ;
+1 x191 -1 x278 = 0 ;
+1 x278 -1 x344 = 0 ;
+1 x344 -1 x397 = 0 ;
+1 x397 -1 x441 = 0 ;
+1 x625 = 0 ;
+2 x192 +1 x193 -1 x73 -1 x71 -1 x72 = 0 ;
+2 x279 +1 x280 -1 x190 -1 x193 = 0 ;
+1 x280 -1 x345 = 0 ;
+1 x345 -1 x398 = 0 ;
+1 x398 -1 x442 = 0 ;
+1 x626 = 0 ;
+2 x194 +1 x195 -1 x76 -1 x74 -1 x75 = 0 ;
+1 x77 -1 x229 = 0 ;
+2 x281 +1 x282 -1 x229 -1 x195 -1 x192 = 0 ;
+2 x346 +1 x347 -1 x279 -1 x282 = 0 ;
+1 x347 -1 x399 = 0 ;
+1 x399 -1 x443 = 0 ;
+1 x627 = 0 ;
+2 x196 +1 x197 -1 x80 -1 x78 -1 x79 = 0 ;
+2 x230 +1 x231 -1 x82 -1 x81 = 0 ;
+2 x283 +1 x284 -1 x231 -1 x197 -1 x194 = 0 ;
+2 x348 +1 x349 -1 x281 -1 x284 = 0 ;
+2 x400 +1 x401 -1 x346 -1 x349 = 0 ;
+1 x401 -1 x444 = 0 ;
+1 x628 = 0 ;
+2 x198 +1 x199 -1 x85 -1 x83 -1 x84 = 0 ;
+2 x232 +1 x233 -1 x88 -1 x86 -1 x87 = 0 ;
+2 x285 +1 x286 -1 x233 -1 x199 -1 x196 = 0 ;
+1 x230 -1 x317 = 0 ;
+2 x350 +1 x351 -1 x317 -1 x286 -1 x283 = 0 ;
+2 x402 +1 x403 -1 x348 -1 x351 = 0 ;
+2 x445 +1 x446 -1 x400 -1 x403 = 0 ;
+1 x629 = 0 ;
+2 x200 +1 x201 -1 x91 -1 x89 -1 x90 = 0 ;
+2 x234 +1 x235 -1 x94 -1 x92 -1 x93 = 0 ;
+1 x95 -1 x257 = 0 ;
+2 x287 +1 x288 -1 x235 -1 x201 -1 x198 = 0 ;
+2 x318 +1 x319 -1 x257 -1 x232 = 0 ;
+2 x352 +1 x353 -1 x319 -1 x288 -1 x285 = 0 ;
+2 x404 +1 x405 -1 x350 -1 x353 = 0 ;
+2 x447 +1 x448 -1 x402 -1 x405 = 0 ;
+1 x630 = 0 ;
+2 x202 +1 x203 -1 x98 -1 x96 -1 x97 = 0 ;
+2 x236 +1 x237 -1 x101 -1 x99 -1 x100 = 0 ;
+2 x258 +1 x259 -1 x103 -1 x102 = 0 ;
+2 x289 +1 x290 -1 x237 -1 x203 -1 x200 = 0 ;
+2 x320 +1 x321 -1 x259 -1 x234 = 0 ;
+2 x354 +1 x355 -1 x321 -1 x290 -1 x287 = 0 ;
+1 x318 -1 x383 = 0 ;
+2 x406 +1 x407 -1 x383 -1 x355 -1 x352 = 0 ;
+2 x449 +1 x450 -1 x404 -1 x407 = 0 ;
+1 x631 = 0 ;
+2 x204 +1 x205 -1 x106 -1 x104 -1 x105 = 0 ;
+2 x238 +1 x239 -1 x109 -1 x107 -1 x108 = 0 ;
+2 x260 +1 x261 -1 x112 -1 x110 -1 x111 = 0 ;
+2 x291 +1 x292 -1 x239 -1 x205 -1 x202 = 0 ;
+2 x322 +1 x323 -1 x258 -1 x236 -1 x261 = 0 ;
+2 x356 +1 x357 -1 x323 -1 x292 -1 x289 = 0 ;
+1 x320 -1 x384 = 0 ;
+2 x408 +1 x409 -1 x384 -1 x357 -1 x354 = 0 ;
+2 x451 +1 x452 -1 x406 -1 x409 = 0 ;
+1 x632 = 0 ;
+2 x206 +1 x207 -1 x115 -1 x113 -1 x114 = 0 ;
+2 x240 +1 x241 -1 x118 -1 x116 -1 x117 = 0 ;
+2 x262 +1 x263 -1 x121 -1 x119 -1 x120 = 0 ;
+1 x122 -1 x273 = 0 ;
+2 x293 +1 x294 -1 x241 -1 x207 -1 x204 = 0 ;
+2 x324 +1 x325 -1 x260 -1 x238 -1 x263 = 0 ;
+1 x273 -1 x339 = 0 ;
+2 x358 +1 x359 -1 x325 -1 x294 -1 x291 = 0 ;
+2 x385 +1 x386 -1 x339 -1 x322 = 0 ;
+2 x410 +1 x411 -1 x386 -1 x359 -1 x356 = 0 ;
+2 x453 +1 x454 -1 x408 -1 x411 = 0 ;
+1 x633 = 0 ;
+2 x208 +1 x209 -1 x125 -1 x123 -1 x124 = 0 ;
+2 x242 +1 x243 -1 x128 -1 x126 -1 x127 = 0 ;
+2 x264 +1 x265 -1 x131 -1 x129 -1 x130 = 0 ;
+2 x274 +1 x275 -1 x133 -1 x132 = 0 ;
+2 x295 +1 x296 -1 x243 -1 x209 -1 x206 = 0 ;
+2 x326 +1 x327 -1 x262 -1 x240 -1 x265 = 0 ;
+1 x275 -1 x340 = 0 ;
+2 x360 +1 x361 -1 x327 -1 x296 -1 x293 = 0 ;
+2 x387 +1 x388 -1 x340 -1 x324 = 0 ;
+2 x412 +1 x413 -1 x388 -1 x361 -1 x358 = 0 ;
+1 x385 -1 x436 = 0 ;
+2 x455 +1 x456 -1 x436 -1 x413 -1 x410 = 0 ;
+1 x634 = 0 ;
+2 x210 +1 x211 -1 x136 -1 x134 -1 x135 = 0 ;
+2 x244 +1 x245 -1 x139 -1 x137 -1 x138 = 0 ;
+2 x266 +1 x267 -1 x142 -1 x140 -1 x141 = 0 ;
+1 x143 -1 x276 = 0 ;
+2 x297 +1 x298 -1 x245 -1 x211 -1 x208 = 0 ;
+2 x328 +1 x329 -1 x264 -1 x242 -1 x267 = 0 ;
+2 x341 +1 x342 -1 x274 -1 x276 = 0 ;
+2 x362 +1 x363 -1 x329 -1 x298 -1 x295 = 0 ;
+2 x389 +1 x390 -1 x342 -1 x326 = 0 ;
+2 x414 +1 x415 -1 x390 -1 x363 -1 x360 = 0 ;
+1 x387 -1 x437 = 0 ;
+2 x457 +1 x458 -1 x437 -1 x415 -1 x412 = 0 ;
+1 x635 = 0 ;
+2 x212 +1 x213 -1 x146 -1 x144 -1 x145 = 0 ;
+2 x246 +1 x247 -1 x149 -1 x147 -1 x148 = 0 ;
+2 x268 +1 x269 -1 x152 -1 x150 -1 x151 = 0 ;
+2 x299 +1 x300 -1 x247 -1 x213 -1 x210 = 0 ;
+2 x330 +1 x331 -1 x266 -1 x244 -1 x269 = 0 ;
+2 x364 +1 x365 -1 x331 -1 x300 -1 x297 = 0 ;
+2 x391 +1 x392 -1 x341 -1 x328 = 0 ;
+2 x416 +1 x417 -1 x392 -1 x365 -1 x362 = 0 ;
+1 x389 -1 x438 = 0 ;
+2 x459 +1 x460 -1 x438 -1 x417 -1 x414 = 0 ;
+1 x636 = 0 ;
+2 x214 +1 x215 -1 x155 -1 x153 -1 x154 = 0 ;
+2 x248 +1 x249 -1 x158 -1 x156 -1 x157 = 0 ;
+2 x270 +1 x271 -1 x160 -1 x159 = 0 ;
+2 x301 +1 x302 -1 x249 -1 x215 -1 x212 = 0 ;
+2 x332 +1 x333 -1 x268 -1 x246 -1 x271 = 0 ;
+2 x366 +1 x367 -1 x333 -1 x302 -1 x299 = 0 ;
+1 x330 -1 x393 = 0 ;
+2 x418 +1 x419 -1 x393 -1 x367 -1 x364 = 0 ;
+1 x391 -1 x439 = 0 ;
+2 x461 +1 x462 -1 x439 -1 x419 -1 x416 = 0 ;
+1 x637 = 0 ;
+2 x216 +1 x217 -1 x163 -1 x161 -1 x162 = 0 ;
+2 x250 +1 x251 -1 x166 -1 x164 -1 x165 = 0 ;
+1 x167 -1 x272 = 0 ;
+2 x303 +1 x304 -1 x251 -1 x217 -1 x214 = 0 ;
+2 x334 +1 x335 -1 x270 -1 x248 -1 x272 = 0 ;
+2 x368 +1 x369 -1 x335 -1 x304 -1 x301 = 0 ;
+1 x332 -1 x394 = 0 ;
+2 x420 +1 x421 -1 x394 -1 x369 -1 x366 = 0 ;
+2 x463 +1 x464 -1 x418 -1 x421 = 0 ;
+1 x638 = 0 ;
+2 x218 +1 x219 -1 x170 -1 x168 -1 x169 = 0 ;
+2 x252 +1 x253 -1 x173 -1 x171 -1 x172 = 0 ;
+2 x305 +1 x306 -1 x253 -1 x219 -1 x216 = 0 ;
+1 x250 -1 x336 = 0 ;
+2 x370 +1 x371 -1 x336 -1 x306 -1 x303 = 0 ;
+1 x334 -1 x395 = 0 ;
+2 x422 +1 x423 -1 x395 -1 x371 -1 x368 = 0 ;
+2 x465 +1 x466 -1 x420 -1 x423 = 0 ;
+1 x639 = 0 ;
+2 x220 +1 x221 -1 x176 -1 x174 -1 x175 = 0 ;
+2 x254 +1 x255 -1 x178 -1 x177 = 0 ;
+2 x307 +1 x308 -1 x255 -1 x221 -1 x218 = 0 ;
+1 x252 -1 x337 = 0 ;
+2 x372 +1 x373 -1 x337 -1 x308 -1 x305 = 0 ;
+2 x424 +1 x425 -1 x370 -1 x373 = 0 ;
+2 x467 +1 x468 -1 x422 -1 x425 = 0 ;
+1 x640 = 0 ;
+2 x222 +1 x223 -1 x181 -1 x179 -1 x180 = 0 ;
+1 x182 -1 x256 = 0 ;
+2 x309 +1 x310 -1 x256 -1 x223 -1 x220 = 0 ;
+1 x254 -1 x338 = 0 ;
+2 x374 +1 x375 -1 x338 -1 x310 -1 x307 = 0 ;
+2 x426 +1 x427 -1 x372 -1 x375 = 0 ;
+2 x469 +1 x470 -1 x424 -1 x427 = 0 ;
+1 x641 = 0 ;
+2 x224 +1 x225 -1 x185 -1 x183 -1 x184 = 0 ;
+2 x311 +1 x312 -1 x222 -1 x225 = 0 ;
+2 x376 +1 x377 -1 x309 -1 x312 = 0 ;
+2 x428 +1 x429 -1 x374 -1 x377 = 0 ;
+2 x471 +1 x472 -1 x426 -1 x429 = 0 ;
+1 x642 = 0 ;
+2 x226 +1 x227 -1 x187 -1 x186 = 0 ;
+2 x313 +1 x314 -1 x224 -1 x227 = 0 ;
+2 x378 +1 x379 -1 x311 -1 x314 = 0 ;
+2 x430 +1 x431 -1 x376 -1 x379 = 0 ;
+2 x473 +1 x474 -1 x428 -1 x431 = 0 ;
+1 x643 = 0 ;
+1 x188 -1 x228 = 0 ;
+2 x315 +1 x316 -1 x226 -1 x228 = 0 ;
+2 x380 +1 x381 -1 x313 -1 x316 = 0 ;
+2 x432 +1 x433 -1 x378 -1 x381 = 0 ;
+2 x475 +1 x476 -1 x430 -1 x433 = 0 ;
+1 x644 = 0 ;
+1 x315 -1 x382 = 0 ;
+2 x434 +1 x435 -1 x380 -1 x382 = 0 ;
+2 x477 +1 x478 -1 x432 -1 x435 = 0 ;
+1 x434 -1 x479 = 0 ;
+1 x480 -1 x68 = 0 ;
+1 x481 -1 x70 = 0 ;
+1 x482 -1 x73 = 0 ;
+1 x483 -1 x77 = 0 ;
+1 x484 -1 x82 = 0 ;
+1 x485 -1 x88 = 0 ;
+1 x486 -1 x95 = 0 ;
+1 x487 -1 x103 = 0 ;
+1 x488 -1 x112 = 0 ;
+1 x489 -1 x122 = 0 ;
+1 x490 -1 x133 = 0 ;
+1 x491 -1 x69 = 0 ;
+1 x492 -1 x72 = 0 ;
+1 x493 -1 x76 = 0 ;
+1 x494 -1 x81 = 0 ;
+1 x495 -1 x87 = 0 ;
+1 x496 -1 x94 = 0 ;
+1 x497 -1 x102 = 0 ;
+1 x498 -1 x111 = 0 ;
+1 x499 -1 x121 = 0 ;
+1 x500 -1 x132 = 0 ;
+1 x501 -1 x143 = 0 ;
+1 x502 -1 x71 = 0 ;
+1 x503 -1 x75 = 0 ;
+1 x504 -1 x80 = 0 ;
+1 x505 -1 x86 = 0 ;
+1 x506 -1 x93 = 0 ;
+1 x507 -1 x101 = 0 ;
+1 x508 -1 x110 = 0 ;
+1 x509 -1 x120 = 0 ;
+1 x510 -1 x131 = 0 ;
+1 x511 -1 x142 = 0 ;
+1 x512 -1 x152 = 0 ;
+1 x513 -1 x74 = 0 ;
+1 x514 -1 x79 = 0 ;
+1 x515 -1 x85 = 0 ;
+1 x516 -1 x92 = 0 ;
+1 x517 -1 x100 = 0 ;
+1 x518 -1 x109 = 0 ;
+1 x519 -1 x119 = 0 ;
+1 x520 -1 x130 = 0 ;
+1 x521 -1 x141 = 0 ;
+1 x522 -1 x151 = 0 ;
+1 x523 -1 x160 = 0 ;
+1 x524 -1 x78 = 0 ;
+1 x525 -1 x84 = 0 ;
+1 x526 -1 x91 = 0 ;
+1 x527 -1 x99 = 0 ;
+1 x528 -1 x108 = 0 ;
+1 x529 -1 x118 = 0 ;
+1 x530 -1 x129 = 0 ;
+1 x531 -1 x140 = 0 ;
+1 x532 -1 x150 = 0 ;
+1 x533 -1 x159 = 0 ;
+1 x534 -1 x167 = 0 ;
+1 x535 -1 x83 = 0 ;
+1 x536 -1 x90 = 0 ;
+1 x537 -1 x98 = 0 ;
+1 x538 -1 x107 = 0 ;
+1 x539 -1 x117 = 0 ;
+1 x540 -1 x128 = 0 ;
+1 x541 -1 x139 = 0 ;
+1 x542 -1 x149 = 0 ;
+1 x543 -1 x158 = 0 ;
+1 x544 -1 x166 = 0 ;
+1 x545 -1 x173 = 0 ;
+1 x546 -1 x89 = 0 ;
+1 x547 -1 x97 = 0 ;
+1 x548 -1 x106 = 0 ;
+1 x549 -1 x116 = 0 ;
+1 x550 -1 x127 = 0 ;
+1 x551 -1 x138 = 0 ;
+1 x552 -1 x148 = 0 ;
+1 x553 -1 x157 = 0 ;
+1 x554 -1 x165 = 0 ;
+1 x555 -1 x172 = 0 ;
+1 x556 -1 x178 = 0 ;
+1 x557 -1 x96 = 0 ;
+1 x558 -1 x105 = 0 ;
+1 x559 -1 x115 = 0 ;
+1 x560 -1 x126 = 0 ;
+1 x561 -1 x137 = 0 ;
+1 x562 -1 x147 = 0 ;
+1 x563 -1 x156 = 0 ;
+1 x564 -1 x164 = 0 ;
+1 x565 -1 x171 = 0 ;
+1 x566 -1 x177 = 0 ;
+1 x567 -1 x182 = 0 ;
+1 x568 -1 x104 = 0 ;
+1 x569 -1 x114 = 0 ;
+1 x570 -1 x125 = 0 ;
+1 x571 -1 x136 = 0 ;
+1 x572 -1 x146 = 0 ;
+1 x573 -1 x155 = 0 ;
+1 x574 -1 x163 = 0 ;
+1 x575 -1 x170 = 0 ;
+1 x576 -1 x176 = 0 ;
+1 x577 -1 x181 = 0 ;
+1 x578 -1 x185 = 0 ;
+1 x579 -1 x113 = 0 ;
+1 x580 -1 x124 = 0 ;
+1 x581 -1 x135 = 0 ;
+1 x582 -1 x145 = 0 ;
+1 x583 -1 x154 = 0 ;
+1 x584 -1 x162 = 0 ;
+1 x585 -1 x169 = 0 ;
+1 x586 -1 x175 = 0 ;
+1 x587 -1 x180 = 0 ;
+1 x588 -1 x184 = 0 ;
+1 x589 -1 x187 = 0 ;
+1 x590 -1 x123 = 0 ;
+1 x591 -1 x134 = 0 ;
+1 x592 -1 x144 = 0 ;
+1 x593 -1 x153 = 0 ;
+1 x594 -1 x161 = 0 ;
+1 x595 -1 x168 = 0 ;
+1 x596 -1 x174 = 0 ;
+1 x597 -1 x179 = 0 ;
+1 x598 -1 x183 = 0 ;
+1 x599 -1 x186 = 0 ;
+1 x600 -1 x188 = 0 ;
+2 x601 +1 x1 -1 x440 -1 x623 = 0 ;
+2 x602 +1 x2 -1 x441 -1 x601 -1 x624 = 0 ;
+2 x603 +1 x3 -1 x442 -1 x602 -1 x625 = 0 ;
+2 x604 +1 x4 -1 x443 -1 x603 -1 x626 = 0 ;
+2 x605 +1 x5 -1 x444 -1 x604 -1 x627 = 0 ;
+2 x606 +1 x6 -1 x446 -1 x605 -1 x628 = 0 ;
+2 x607 +1 x7 -1 x448 -1 x606 -1 x445 = 0 ;
+2 x608 +1 x8 -1 x450 -1 x607 -1 x447 = 0 ;
+2 x609 +1 x9 -1 x452 -1 x608 -1 x449 = 0 ;
+2 x610 +1 x10 -1 x454 -1 x609 -1 x451 = 0 ;
+2 x611 +1 x11 -1 x456 -1 x610 -1 x453 = 0 ;
+2 x612 +1 x12 -1 x458 -1 x611 -1 x455 = 0 ;
+2 x613 +1 x13 -1 x460 -1 x612 -1 x457 = 0 ;
+2 x614 +1 x14 -1 x462 -1 x613 -1 x459 = 0 ;
+2 x615 +1 x15 -1 x464 -1 x614 -1 x461 = 0 ;
+2 x616 +1 x16 -1 x466 -1 x615 -1 x463 = 0 ;
+2 x617 +1 x17 -1 x468 -1 x616 -1 x465 = 0 ;
+2 x618 +1 x18 -1 x470 -1 x617 -1 x467 = 0 ;
+2 x619 +1 x19 -1 x472 -1 x618 -1 x469 = 0 ;
+2 x620 +1 x20 -1 x474 -1 x619 -1 x471 = 0 ;
+2 x621 +1 x21 -1 x476 -1 x620 -1 x473 = 0 ;
+2 x622 +1 x22 -1 x478 -1 x621 -1 x475 = 0 ;
+1 x622 -1 x23 = 0 ;
